words_easy_train/words_775_SAT.qaiger
aag 34 16 0 1 18
2
14
16
18
22
30
28
10
32
20
26
24
4
8
12
6
69
34 28 11
36 26 9
38 7 5
40 38 20
42 40 3
44 43 37
46 27 8
48 29 10
50 49 47
52 50 45
54 53 35
56 55 13
58 33 14
60 32 15
62 61 59
64 62 56
66 63 57
68 67 65
i0 1 x1[0]
i1 1 x1[6]
i2 1 x1[7]
i3 2 y2[0]
i4 2 y2[2]
i5 2 y2[6]
i6 2 y2[5]
i7 1 x1[4]
i8 2 y2[7]
i9 2 y2[1]
i10 2 y2[4]
i11 2 y2[3]
i12 1 x1[1]
i13 1 x1[3]
i14 1 x1[5]
i15 1 x1[2]
o0 bv[0]
c
simplified
  >
    and
      178
      2 y2
    << 1
      1 x1
