words_easy_train/words_775_SAT.qaiger.qdimacs
p cnf 34 55
a 1 2 3 4 5 6 7 8 0
e 9 10 11 12 13 14 15 16 17 18 19 20 21 22 23 24 25 26 27 28 29 30 31 32 33 34 0
-14 5 17 0
14 -17 0
-5 -17 0
-13 4 18 0
13 -18 0
-4 -18 0
3 2 19 0
-3 -19 0
-2 -19 0
-19 -10 20 0
19 -20 0
10 -20 0
-20 1 21 0
20 -21 0
-1 -21 0
21 18 22 0
-21 -22 0
-18 -22 0
13 -4 23 0
-13 -23 0
4 -23 0
14 -5 24 0
-14 -24 0
5 -24 0
24 23 25 0
-24 -25 0
-23 -25 0
-25 22 26 0
25 -26 0
-22 -26 0
26 17 27 0
-26 -27 0
-17 -27 0
27 6 28 0
-27 -28 0
-6 -28 0
16 -7 29 0
-16 -29 0
7 -29 0
-16 7 30 0
16 -30 0
-7 -30 0
30 29 31 0
-30 -31 0
-29 -31 0
-31 -28 32 0
31 -32 0
28 -32 0
31 28 33 0
-31 -33 0
-28 -33 0
33 32 34 0
-33 -34 0
-32 -34 0
-34 0
